
Gurobi 10.0.3 (linux64, gurobi_cl) logging started Thu Nov  9 11:48:12 2023

Set parameter Username
Set parameter TimeLimit to value 3600
Set parameter LogFile to value "RCPSP_1143.log"
Set parameter Threads to value 32
Academic license - for non-commercial use only - expires 2024-10-30
Using license file /home/jrivera6/gurobi-licenses/v1003/compute-0-37/gurobi.lic

Gurobi Optimizer version 10.0.3 build v10.0.3rc0 (linux64)
Copyright (c) 2023, Gurobi Optimization, LLC

Read MPS format model from file RCPSP_1143.mps
Reading time = 0.05 seconds
RCPSP_1143: 42947 rows, 17020 columns, 134581 nonzeros

CPU model: Intel(R) Xeon(R) Gold 6242 CPU @ 2.80GHz, instruction set [SSE2|AVX|AVX2|AVX512]
Thread count: 32 physical cores, 32 logical processors, using up to 32 threads

Optimize a model with 42947 rows, 17020 columns and 134581 nonzeros
Model fingerprint: 0x0c0dab70
Variable types: 92 continuous, 16928 integer (16928 binary)
Coefficient statistics:
  Matrix range     [1e+00, 5e+02]
  Objective range  [1e+00, 1e+00]
  Bounds range     [1e+00, 1e+00]
  RHS range        [1e+00, 5e+02]
Presolve removed 8263 rows and 2168 columns
Presolve time: 3.52s
Presolved: 34684 rows, 14852 columns, 112089 nonzeros
Variable types: 91 continuous, 14761 integer (14761 binary)

Deterministic concurrent LP optimizer: primal and dual simplex (primal and dual model)
Showing first log only...

Root relaxation presolved: 34684 rows, 14852 columns, 112089 nonzeros

Concurrent spin time: 0.48s

Solved with dual simplex (dual model)

Root relaxation: objective 8.900000e+01, 16106 iterations, 1.26 seconds (0.12 work units)

    Nodes    |    Current Node    |     Objective Bounds      |     Work
 Expl Unexpl |  Obj  Depth IntInf | Incumbent    BestBd   Gap | It/Node Time

H    0     0                      89.0000000   89.00000  0.00%     -    5s
     0     0   89.00000    0 2413   89.00000   89.00000  0.00%     -    5s

Explored 1 nodes (16124 simplex iterations) in 5.24 seconds (2.92 work units)
Thread count was 32 (of 32 available processors)

Solution count 1: 89 

Optimal solution found (tolerance 1.00e-04)
Best objective 8.900000000000e+01, best bound 8.900000000000e+01, gap 0.0000%

Wrote result file 'RCPSP_1143.sol'

